set D := d1AM d1PM d2AM;
set S_[d1AM] := 1 2;
set S_[d1PM] := 3 4;
set S_[d2AM] := 5 6;
set S :=
 1 
 2 
 3 
 4 
 5 
 6 
;
set R :=
 4101 
 4102 
 4103 
;
set O :=
(12,13)
;
set C :=
(14-50,12-70)
;
set G:=
(3,2)
(8,9)
(9,6)
(9,7)
(14,15)
(14,20)
;
param u :=
1 8
2 8
3 8
4 8
5 8
6 8
;
set L :=
 1 
 2 
 3 
 4 
 5 
 6 
 7 
 8 
 9 
 10 
 11 
 12 
 13 
 14 
 15 
 16 
 17 
 18 
 19 
 20 
;
set A[1] := 1 2 3 4 5 6 7 8; 
set A[2] := 1 2 3 4 5 6 7 8; 
set A[3] := 1 2 3 4 5 6 7 8; 
set A[4] := 1 2 3 4 5 6 7 8; 
set A[5] := 1 2 3 4 5 6 7 8; 
set A[6] := 1 2 3 4 5 6 7 8; 
set I :=
14-9
14-11
14-15
14-53
14-64
14-99
14-100
14-134
14-13
14-18
14-27
14-46
14-81
14-153
14-4
14-7
14-58
14-126
14-141
14-149
14-154
14-60
14-66
14-79
14-121
14-139
14-151
14-31
14-155
14-142
14-77
14-132
14-133
14-1
14-22
14-63
14-89
14-105
14-128
14-12
14-44
14-88
14-111
14-143
14-48
14-93
14-110
14-115
14-127
14-148
14-8
14-10
14-30
14-55
14-91
14-138
14-24
14-29
14-42
14-152
14-156
14-36
14-96
14-102
14-114
14-122
14-125
14-147
13-114
14-20
14-23
14-56
14-68
14-92
14-107
14-26
14-45
14-80
14-94
14-106
14-117
14-14
14-37
14-49
14-54
14-112
14-116
14-50
12-70
14-82
14-76
14-90
14-131
14-144
14-21
14-28
14-39
14-57
14-59
14-101
14-136
14-146
14-3
14-16
14-17
14-108
14-130
14-135
13-30
14-38
14-62
14-84
14-87
14-109
14-124
14-5
14-25
14-52
14-69
14-74
13-34
14-83
14-86
14-129
12-77
14-33
14-150
14-73
;
param j :=
5 14-31 0
6 14-31 0
5 14-50 0
6 14-50 0
5 12-70 0
6 12-70 0
5 14-82 0
6 14-82 0
5 14-76 0
6 14-76 0
5 14-90 0
6 14-90 0
5 14-131 0
6 14-131 0
5 14-144 0
6 14-144 0
3 14-57 0
4 14-57 0
3 14-101 0
4 14-101 0
3 14-146 0
4 14-146 0
5 14-5 0
6 14-5 0
;
param j_ :=
5 15 0
6 15 0
;
param b :=
1 14-9 1
1 14-11 1
1 14-15 1
1 14-53 1
1 14-64 1
1 14-99 1
1 14-100 1
1 14-134 1
2 14-13 1
2 14-18 1
2 14-27 1
2 14-46 1
2 14-81 1
2 14-153 1
3 14-4 1
3 14-7 1
3 14-58 1
3 14-126 1
3 14-141 1
3 14-149 1
3 14-154 1
4 14-60 1
4 14-66 1
4 14-79 1
4 14-121 1
4 14-139 1
4 14-151 1
5 14-31 1
5 14-155 1
5 14-142 1
5 14-77 1
5 14-132 1
5 14-133 1
6 14-1 1
6 14-22 1
6 14-63 1
6 14-89 1
6 14-105 1
6 14-128 1
7 14-12 1
7 14-44 1
7 14-88 1
7 14-111 1
7 14-143 1
8 14-48 1
8 14-93 1
8 14-110 1
8 14-115 1
8 14-127 1
8 14-148 1
9 14-8 1
9 14-10 1
9 14-30 1
9 14-55 1
9 14-91 1
9 14-138 1
10 14-24 1
10 14-29 1
10 14-42 1
10 14-152 1
10 14-156 1
10 14-36 1
11 14-96 1
11 14-102 1
11 14-114 1
11 14-122 1
11 14-125 1
11 14-147 1
11 13-114 1
12 14-20 1
12 14-23 1
12 14-56 1
12 14-68 1
12 14-92 1
12 14-107 1
13 14-26 1
13 14-45 1
13 14-80 1
13 14-94 1
13 14-106 1
13 14-117 1
14 14-14 1
14 14-37 1
14 14-49 1
14 14-54 1
14 14-112 1
14 14-116 1
15 14-50 1
15 12-70 1
15 14-82 1
15 14-76 1
15 14-90 1
15 14-131 1
15 14-144 1
16 14-21 1
16 14-28 1
16 14-39 1
16 14-57 1
16 14-59 1
16 14-101 1
16 14-136 1
16 14-146 1
17 14-3 1
17 14-16 1
17 14-17 1
17 14-108 1
17 14-130 1
17 14-135 1
17 13-30 1
18 14-38 1
18 14-62 1
18 14-84 1
18 14-87 1
18 14-109 1
18 14-124 1
19 14-5 1
19 14-25 1
19 14-52 1
19 14-69 1
19 14-74 1
19 13-34 1
20 14-83 1
20 14-86 1
20 14-129 1
20 12-77 1
20 14-33 1
20 14-150 1
20 14-73 1
;
end;
